681794
54,175,202,99,190,219,106,77,121,180,158,82,115,2,204,172,168,45,212,230,104,103,187,12,146,88,228,109,186,171,150,90,170,142,4,21,217,153,129,33,224,38,203,6,68,9,101,184,161,107,116,166,96,91,26,22,89,196,179,192,37,34,205,75,215,78,28,151,50,108,94,35,87,62,102,55,130,81,40,169,27,112,155,133,229,36,7,1,72,162,135,140,71,118,49,67,83,157,74,39,207,147,127,43,31,199,178,163,32,63,210,183,20,117,144,145,211,156,5,64,44,223,176,220,30,97,120,8,15,137,138,60,16,189,185,3,208,159,23,69,226,177,51,98,42,160,113,73,209,218,206,136,181,124,173,131,148,182,61,25,123,188,85,167,79,95,84,57,76,174,164,154,65,29,193,195,119,86,70,126,122,152,191,114,198,200,10,201,110,14,165,194,13,17,47,225,48,111,134,19,227,125,46,214,197,143,11,139,58,59,221,213,93,52,80,132,149,222,41,128,141,24,66,105,216,100,53,92,18,56,54